cliques=[{3,2,1,0},{3,2,1,0},{3,2,1,0},{3,16,41,20,25,13,34,29},{6,5,8,4,7},{35,44,5,30,0},{6,5,8,4,7},{6,5,8,4,7},{6,5,8,4,7},{32,14,42,9,37,22},{10,11,13,9,12},{10,11,13,9,12},{10,11,13,9,12},{3,16,41,20,25,13,34,29},{32,14,42,9,37,22},{16,14,15},{3,16,41,20,25,13,34,29},{6,31,26,36,17},{20,19,17,18},{20,19,17,18},{3,16,41,20,25,13,34,29},{24,21,25,23,22},{24,21,25,23,22},{24,21,25,23,22},{24,21,25,23,22},{3,16,41,20,25,13,34,29},{6,31,26,36,17},{10,27,45,23},{2,38,28},{3,16,41,20,25,13,34,29},{35,44,5,30,0},{6,31,26,36,17},{32,14,42,9,37,22},{32,31,34,33,30},{3,16,41,20,25,13,34,29},{41,38,35,39,40,36,37},{41,38,35,39,40,36,37},{41,38,35,39,40,36,37},{41,38,35,39,40,36,37},{41,38,35,39,40,36,37},{41,38,35,39,40,36,37},{3,16,41,20,25,13,34,29},{32,14,42,9,37,22},{40,43,12,8},{35,44,5,30,0},{10,27,45,23},{19,39,33,46,7}];
nr_cliques=47;
